
Gurobi 11.0.1 (linux64, gurobi_cl) logging started Wed Mar 25 19:32:19 2026

Set parameter WLSAccessID
Set parameter WLSSecret
Set parameter LicenseID to value 2790379
Set parameter TimeLimit to value 72000
Set parameter MIPGap to value 0.01
Set parameter LogFile to value "milp_util/gurobi.log"
Set parameter Threads to value 2
Using license file /home/prarabdha-srivastava/Desktop/gurobi.lic
Academic license 2790379 - for non-commercial use only - registered to pr___@iisc.ac.in

Gurobi Optimizer version 11.0.1 build v11.0.1rc0 (linux64 - "Ubuntu 24.04.3 LTS")
Copyright (c) 2024, Gurobi Optimization, LLC

Read MPS format model from file milp_util/cg_master_bw_5_MHz_T_3.0_ms_mu_max_3_K_3_vues_6_cols_1050.mps
Reading time = 0.04 seconds
CG_Integer_Master: 654 rows, 1050 columns, 128994 nonzeros

CPU model: AMD Ryzen 5 5500U with Radeon Graphics, instruction set [SSE2|AVX|AVX2]
Thread count: 6 physical cores, 12 logical processors, using up to 2 threads

Academic license 2790379 - for non-commercial use only - registered to pr___@iisc.ac.in
Optimize a model with 654 rows, 1050 columns and 128994 nonzeros
Model fingerprint: 0xfaffa917
Variable types: 0 continuous, 1050 integer (1050 binary)
Coefficient statistics:
  Matrix range     [1e+00, 1e+00]
  Objective range  [1e-03, 4e+01]
  Bounds range     [1e+00, 1e+00]
  RHS range        [1e+00, 1e+00]
Found heuristic solution: objective 0.0060000
Presolve removed 2 rows and 0 columns
Presolve time: 0.49s
Presolved: 652 rows, 1050 columns, 128508 nonzeros
Variable types: 0 continuous, 1050 integer (1050 binary)
Found heuristic solution: objective 74.0050000

Root relaxation: objective 8.025074e+01, 2347 iterations, 0.28 seconds (0.66 work units)

    Nodes    |    Current Node    |     Objective Bounds      |     Work
 Expl Unexpl |  Obj  Depth IntInf | Incumbent    BestBd   Gap | It/Node Time

     0     0   80.25074    0  224   74.00500   80.25074  8.44%     -    1s
     0     0   80.25074    0  224   74.00500   80.25074  8.44%     -    1s
     0     0   80.24545    0  224   74.00500   80.24545  8.43%     -    1s
     0     0   79.40347    0  194   74.00500   79.40347  7.29%     -    1s
     0     0   79.40347    0  194   74.00500   79.40347  7.29%     -    1s
     0     0   79.40347    0  194   74.00500   79.40347  7.29%     -    1s
     0     0   79.38531    0  193   74.00500   79.38531  7.27%     -    1s
     0     0   77.81459    0  159   74.00500   77.81459  5.15%     -    2s
     0     0   77.52420    0  158   74.00500   77.52420  4.76%     -    2s
     0     0   77.49233    0  144   74.00500   77.49233  4.71%     -    2s
     0     0   75.27012    0  127   74.00500   75.27012  1.71%     -    3s
     0     0          -    0        74.00500   74.73718  0.99%     -    3s

Cutting planes:
  Clique: 43
  MIR: 3
  Zero half: 19

Explored 1 nodes (7153 simplex iterations) in 3.20 seconds (5.08 work units)
Thread count was 2 (of 12 available processors)

Solution count 2: 74.005 0.006 

Optimal solution found (tolerance 1.00e-02)
Best objective 7.400500000000e+01, best bound 7.473700000000e+01, gap 0.9891%

Wrote result file 'milp_util/solution.sol'

